Comps = {frontend0, frontend1, backend0, backend1, database0, database1};
mustComps = {frontend0, frontend1};
Flavs = {tiny, medium, large};
Nodes = {n1, n2, n3, n4};
CRes = {CPU, RAM, storage, bwIn, bwOut};
NRes = {ssl, fwall, encr, avail, latency};
Flav = [{medium, large}, {medium, large}, {tiny, medium, large}, {tiny, medium, large}, {large}, {large}];
Uses = array2d(CompFlavs, CompFlavs, [
	0,0,0,0,0,0,0,1,0,0,0,0,
	0,0,0,0,0,0,0,1,0,0,0,0,
	0,0,0,0,0,0,0,1,0,0,0,0,
	0,0,0,0,0,0,0,1,0,0,0,0,
	0,0,0,0,0,0,0,0,0,0,0,0,
	0,0,0,0,0,0,0,0,0,1,0,0,
	0,0,0,0,0,0,0,0,0,1,0,0,
	0,0,0,0,0,0,0,0,0,0,0,0,
	0,0,0,0,0,0,1,0,0,0,0,0,
	0,0,0,0,0,0,1,0,0,0,0,0,
	0,0,0,0,0,0,0,0,0,0,0,0,
	0,0,0,0,0,0,0,0,0,0,0,0,
]);
mayUse = array2d(Comps, CompFlavs, [
	0,0,0,0,0,0,0,0,0,0,0,0,
	0,0,0,0,0,0,0,0,0,0,0,0,
	0,0,0,0,0,0,0,0,1,1,0,0,
	1,1,1,1,0,1,1,0,0,0,0,0,
	0,0,0,0,0,0,0,0,0,0,0,0,
	0,0,0,0,0,0,0,0,0,0,0,0,
]);
MIN_RBOUNDS = 0;
MAX_RBOUNDS = 1000000;

worstBounds = [0, 0, 0, 0, 0, 0, 0, 0, 0, MAX_RBOUNDS];
bestBounds = [MAX_RBOUNDS - i | i in worstBounds];

comReq = array2d(CompFlavs, Res, [
  2, 326, 262, 640, 964, 1, 0, 1, 97, MAX_RBOUNDS,
  2, 226, 292, 447, 920, 0, 1, 1, 96, MAX_RBOUNDS,
  8, 214, 460, 548, 299, 1, 0, 0, 96, MAX_RBOUNDS,
  8, 267, 426, 549, 301, 0, 1, 1, 97, MAX_RBOUNDS,
  2, 239, 393, 763, 538, 0, 0, 0, 96, MAX_RBOUNDS,
  2, 292, 303, 414, 977, 0, 1, 1, 97, MAX_RBOUNDS,
  8, 335, 358, 675, 817, 1, 0, 1, 97, MAX_RBOUNDS,
  2, 219, 226, 419, 470, 1, 1, 0, 95, MAX_RBOUNDS,
  2, 446, 208, 291, 856, 0, 0, 0, 95, MAX_RBOUNDS,
  4, 396, 255, 209, 273, 1, 1, 1, 97, MAX_RBOUNDS,
  2, 204, 487, 777, 927, 0, 1, 0, 97, MAX_RBOUNDS,
  8, 408, 267, 912, 666, 0, 0, 1, 95, MAX_RBOUNDS,
]);

nodeCap = array2d(Nodes0, Res, [bestBounds[r] | r in Res] ++ [
  32, 24131, 577389, 23236, 18617, 1, 1, 1, 99, 0,
  32, 74955, 557868, 10773, 12067, 1, 1, 1, 98, 0,
  32, 65222, 646936, 19465, 21355, 1, 0, 1, 99, 0,
  32, 92441, 124918, 10466, 11390, 1, 1, 1, 98, 0,
]);

cost = array2d(Nodes0, Res, [
  0, 0, 0, 0, 0, 0, 0, 0, 0, 0, % no node
  15, 7, 19, 0, 0, 0, 0, 0, 0, 0,
  11, 6, 20, 0, 0, 0, 0, 0, 0, 0,
  13, 10, 17, 0, 0, 0, 0, 0, 0, 0,
  12, 6, 20, 0, 0, 0, 0, 0, 0, 0,
]);

carb = array2d(Nodes0, Res, [
  0, 0, 0, 0, 0, 0, 0, 0, 0, 0, % no node
  19, 26, 21, 0, 0, 0, 0, 0, 0, 0,
  28, 26, 13, 0, 0, 0, 0, 0, 0, 0,
  38, 41, 30, 0, 0, 0, 0, 0, 0, 0,
  17, 42, 33, 0, 0, 0, 0, 0, 0, 0,
]);

costBudget = 33371;
carbBudget = 36986;

depReq = array4d(Comps, Flavs, Comps, Res, [
  if c1 = frontend0 /\ c2 = backend0 /\ r = N(avail) then
    96
  elseif c1 = frontend0 /\ c2 = backend1 /\ r = N(avail) then
    96
  elseif c1 = frontend1 /\ c2 = backend1 /\ r = N(avail) then
    95
  elseif c1 = frontend1 /\ c2 = backend0 /\ r = N(avail) then
    97
  else
    worstBounds[r]
  endif | c1 in Comps, i in Flavs, c2 in Comps, r in Res]);

linkCap = array3d(Nodes0, Nodes0, Res, [
  if ni = 0 \/ nj = 0 then
    bestBounds[r]
  elseif ni = nj /\ r = N(avail) then
    nodeCap[ni,r]
  elseif {ni, nj} = {n1, n2} /\ r = N(avail) then
    98
  elseif {ni, nj} = {n2, n4} /\ r = N(avail) then
    99
  elseif {ni, nj} = {n1, n4} /\ r = N(avail) then
    98
  elseif {ni, nj} = {n2, n3} /\ r = N(avail) then
    99
  elseif {ni, nj} = {n1, n3} /\ r = N(avail) then
    98
  elseif {ni, nj} = {n3, n4} /\ r = N(avail) then
    99
  else
    worstBounds[r]
  endif | ni in Nodes0, nj in Nodes0, r in Res]);

imp = array2d(Comps, Flavs, [
  2, 6, 7,
  1, 5, 8,
  1, 2, 4,
  4, 6, 9,
  6, 7, 9,
  1, 6, 8,
]);

